data/instances/vrp_files/train_33.vrp
NAME : 33
COMMENT : Generated instance No. 33
TYPE : CVRP
DIMENSION : 21
EDGE_WEIGHT_TYPE : EUC_2D
CAPACITY : 30
NODE_COORD_SECTION
 1 147 328
 2 367 326
 3 148 305
 4 876 996
 5 368 448
 6 722 886
 7 593 391
 8 412 695
 9 3 619
 10 355 794
 11 92 588
 12 480 642
 13 64 579
 14 561 560
 15 603 676
 16 804 269
 17 825 498
 18 77 58
 19 334 784
 20 707 788
 21 517 440
DEMAND_SECTION
1 0
2 7
3 1
4 2
5 4
6 1
7 9
8 6
9 1
10 1
11 6
12 4
13 4
14 6
15 7
16 9
17 10
18 5
19 9
20 4
21 10
DEPOT_SECTION
 1
 -1
EOF